Tried aggregator 2 times.
MIP Presolve eliminated 5 rows and 1 columns.
MIP Presolve modified 40 coefficients.
Aggregator did 40 substitutions.
Reduced MIP has 240 rows, 216 columns, and 625 nonzeros.
Reduced MIP has 125 binaries, 11 generals, 0 SOSs, and 40 indicators.
Presolve time = 0.00 sec. (0.59 ticks)
Probing fixed 30 vars, tightened 93 bounds.
Probing time = 0.00 sec. (1.58 ticks)
Tried aggregator 3 times.
MIP Presolve eliminated 47 rows and 50 columns.
MIP Presolve modified 80 coefficients.
Aggregator did 73 substitutions.
Reduced MIP has 120 rows, 93 columns, and 402 nonzeros.
Reduced MIP has 65 binaries, 11 generals, 0 SOSs, and 20 indicators.
Presolve time = 0.00 sec. (0.93 ticks)
Probing time = 0.00 sec. (0.39 ticks)
Tried aggregator 1 time.
Reduced MIP has 120 rows, 93 columns, and 402 nonzeros.
Reduced MIP has 65 binaries, 11 generals, 0 SOSs, and 20 indicators.
Presolve time = 0.00 sec. (0.20 ticks)
Probing time = 0.00 sec. (0.39 ticks)
Clique table members: 334.
MIP emphasis: balance optimality and feasibility.
MIP search method: dynamic search.
Parallel mode: deterministic, using up to 4 threads.
Root relaxation solution time = 0.00 sec. (0.22 ticks)

        Nodes                                         Cuts/
   Node  Left     Objective  IInf  Best Integer    Best Bound    ItCnt     Gap

      0     0       10.0000    40                     10.0000       20         
*     0+    0                           10.0000       10.0000       20    0.00%
      0     0        cutoff             10.0000       10.0000       20    0.00%
Elapsed time = 0.03 sec. (7.92 ticks, tree = 0.00 MB, solutions = 1)

Root node processing (before b&c):
  Real time             =    0.03 sec. (7.92 ticks)
Parallel b&c, 4 threads:
  Real time             =    0.00 sec. (0.00 ticks)
  Sync time (average)   =    0.00 sec.
  Wait time (average)   =    0.00 sec.
                          ------------
Total (root+branch&cut) =    0.03 sec. (7.92 ticks)
